nNurses = 168;
nHours = 29;
minHours = 10;
maxHours = 15;
maxConsec = 10;
maxPresence = 27;
demand = [19, 20, 20, 23, 19, 23, 27, 28, 25, 24, 22, 27, 30, 31, 31, 27, 31, 29, 24, 23, 24, 24, 23, 25, 20, 16, 20, 22, 18];
